200
100
100
100
100
99
98
98
98
97
97
97
97
96
96
96
96
95
95
95
94
94
94
94
93
93
92
92
92
91
91
91
91
90
90
89
87
87
86
86
85
84
84
83
83
82
81
81
81
80
80
79
79
79
79
79
79
78
78
78
78
77
77
77
77
77
76
76
76
76
75
75
75
74
74
73
73
73
73
73
72
72
72
71
71
71
70
70
70
69
69
69
69
69
68
67
67
67
66
65
65
65
65
64
63
63
63
63
62
62
62
61
61
61
60
59
59
59
59
59
58
57
57
57
57
57
56
56
55
54
54
53
53
53
53
53
52
52
52
51
50
48
48
47
47
47
47
46
46
44
44
44
43
43
42
41
41
41
41
40
40
39
38
37
36
36
36
36
35
34
34
33
33
32
31
31
31
30
30
29
29
28
28
28
27
27
27
27
26
25
25
24
24
23
23
22
22
22
22
21
21
20
